Maximize
    4 x + 7 y
Subject To
    c1: 7 x + 13 y <= 182
    c2: 5 x + 3 y <= 60
Bounds
    x >= 0
    y >= 0
End
'''


Mathematical Optimization of Profit
The Glue Problem
Example Linear Programming Problem
James Gaboardi, MSGISci
9/2015

This .lp file can be read into a solver (CPLEX, Gurobi, etc.)

x = Glue 1
y = Glue 2

$4 for each unit of [x] and $7 for each unit of [y]

Constraint 1 = Man (hrs.)
Constraint 2 = Man (hrs.)



Originally Published:
    Cohen, S. S.
    1985
    Operational Researh
    London, UK
    Edward Arnold Publishers